(declare-fun var0 () String)
(assert (RegexIn var0 (RegexConcat (RegexUnion (RegexPlus (Str2Reg "ii")) (RegexStar (Str2Reg "jj"))) (RegexConcat (RegexUnion (RegexPlus (Str2Reg "ggg")) (RegexPlus (Str2Reg "hh"))) (RegexConcat (RegexUnion (RegexPlus (Str2Reg "ee")) (RegexPlus (Str2Reg "f"))) (RegexConcat (RegexUnion (RegexUnion (Str2Reg "aa") (Str2Reg "bbb")) (RegexUnion (Str2Reg "ccc") (Str2Reg "d"))) (RegexConcat (RegexStar (RegexPlus (Str2Reg "99"))) (RegexConcat (RegexPlus (RegexStar (Str2Reg "88"))) (RegexConcat (RegexUnion (RegexUnion (Str2Reg "5") (Str2Reg "66")) (RegexStar (Str2Reg "777"))) (RegexConcat (RegexPlus (RegexPlus (Str2Reg "4"))) (RegexConcat (RegexStar (RegexUnion (Str2Reg "2") (Str2Reg "33"))) (RegexConcat (RegexPlus (RegexStar (Str2Reg "111"))) (RegexStar (RegexPlus (Str2Reg "000")))))))))))))))
(assert (not (RegexIn var0 (RegexConcat (RegexStar (RegexUnion (Str2Reg "g") (Str2Reg "h"))) (RegexConcat (RegexPlus (RegexPlus (Str2Reg "fff"))) (RegexConcat (RegexUnion (RegexStar (Str2Reg "ddd")) (RegexPlus (Str2Reg "e"))) (RegexConcat (RegexPlus (RegexUnion (Str2Reg "bb") (Str2Reg "c"))) (RegexConcat (RegexStar (RegexPlus (Str2Reg "a"))) (RegexConcat (RegexUnion (RegexPlus (Str2Reg "888")) (RegexStar (Str2Reg "9"))) (RegexConcat (RegexStar (RegexUnion (Str2Reg "6") (Str2Reg "777"))) (RegexConcat (RegexStar (RegexPlus (Str2Reg "5"))) (RegexConcat (RegexStar (RegexUnion (Str2Reg "333") (Str2Reg "44"))) (RegexConcat (RegexPlus (RegexStar (Str2Reg "22"))) (RegexUnion (RegexPlus (Str2Reg "000")) (RegexStar (Str2Reg "111"))))))))))))))))
(check-sat)